
Gurobi 8.0.0 (linux64, Python) logging started Thu Jun 14 15:28:13 2018

Academic license - for non-commercial use only

Gurobi 8.0.0 (linux64, Python) logging started Thu Jun 14 15:42:53 2018

Academic license - for non-commercial use only

Gurobi 8.0.0 (linux64, Python) logging started Thu Jun 14 15:43:53 2018

Academic license - for non-commercial use only

Gurobi 8.0.0 (linux64, Python) logging started Thu Jun 14 15:45:50 2018

Academic license - for non-commercial use only

Gurobi 8.0.0 (linux64, Python) logging started Thu Jun 14 15:51:23 2018

Academic license - for non-commercial use only

Gurobi 8.0.0 (linux64, Python) logging started Thu Jun 14 15:51:27 2018

Academic license - for non-commercial use only

Gurobi 8.0.0 (linux64, Python) logging started Thu Jun 14 15:52:35 2018

Academic license - for non-commercial use only
Optimize a model with 235 rows, 472 columns and 940 nonzeros
Coefficient statistics:
  Matrix range     [1e+00, 5e+03]
  Objective range  [5e-01, 5e-01]
  Bounds range     [0e+00, 0e+00]
  RHS range        [2e+02, 2e+03]
Presolve time: 0.02s
Presolved: 235 rows, 472 columns, 940 nonzeros

Iteration    Objective       Primal Inf.    Dual Inf.      Time
       0    0.0000000e+00   6.978089e+03   0.000000e+00      0s
     262    8.7803316e+03   0.000000e+00   0.000000e+00      0s

Solved in 262 iterations and 0.04 seconds
Optimal objective  8.780331590e+03

Gurobi 8.0.0 (linux64, Python) logging started Thu Jun 14 15:52:51 2018

Academic license - for non-commercial use only
Optimize a model with 235 rows, 472 columns and 940 nonzeros
Coefficient statistics:
  Matrix range     [1e+00, 5e+03]
  Objective range  [5e-01, 5e-01]
  Bounds range     [0e+00, 0e+00]
  RHS range        [2e+02, 2e+03]
Presolve time: 0.00s
Presolved: 235 rows, 472 columns, 940 nonzeros

Iteration    Objective       Primal Inf.    Dual Inf.      Time
       0    0.0000000e+00   6.978089e+03   0.000000e+00      0s
     262    8.7803316e+03   0.000000e+00   0.000000e+00      0s

Solved in 262 iterations and 0.01 seconds
Optimal objective  8.780331590e+03

Gurobi 8.0.0 (linux64, Python) logging started Thu Jun 14 15:53:09 2018

Academic license - for non-commercial use only
Optimize a model with 235 rows, 472 columns and 940 nonzeros
Coefficient statistics:
  Matrix range     [1e+00, 5e+03]
  Objective range  [5e-01, 5e-01]
  Bounds range     [0e+00, 0e+00]
  RHS range        [2e+02, 2e+03]
Presolve time: 0.00s
Presolved: 235 rows, 472 columns, 940 nonzeros

Iteration    Objective       Primal Inf.    Dual Inf.      Time
       0    0.0000000e+00   6.978089e+03   0.000000e+00      0s
     262    8.7803316e+03   0.000000e+00   0.000000e+00      0s

Solved in 262 iterations and 0.01 seconds
Optimal objective  8.780331590e+03

Gurobi 8.0.0 (linux64, Python) logging started Thu Jun 14 15:53:50 2018

Academic license - for non-commercial use only
Optimize a model with 235 rows, 472 columns and 940 nonzeros
Coefficient statistics:
  Matrix range     [1e+00, 5e+03]
  Objective range  [5e-01, 5e-01]
  Bounds range     [0e+00, 0e+00]
  RHS range        [2e+02, 2e+03]
Presolve time: 0.00s
Presolved: 235 rows, 472 columns, 940 nonzeros

Iteration    Objective       Primal Inf.    Dual Inf.      Time
       0    0.0000000e+00   6.978089e+03   0.000000e+00      0s
     262    8.7803316e+03   0.000000e+00   0.000000e+00      0s

Solved in 262 iterations and 0.00 seconds
Optimal objective  8.780331590e+03

Gurobi 8.0.0 (linux64, Python) logging started Thu Jun 14 15:53:55 2018

Academic license - for non-commercial use only
Optimize a model with 235 rows, 472 columns and 940 nonzeros
Coefficient statistics:
  Matrix range     [1e+00, 5e+03]
  Objective range  [5e-01, 5e-01]
  Bounds range     [0e+00, 0e+00]
  RHS range        [2e+02, 2e+03]
Presolve time: 0.00s
Presolved: 235 rows, 472 columns, 940 nonzeros

Iteration    Objective       Primal Inf.    Dual Inf.      Time
       0    0.0000000e+00   6.978089e+03   0.000000e+00      0s
     262    8.7803316e+03   0.000000e+00   0.000000e+00      0s

Solved in 262 iterations and 0.00 seconds
Optimal objective  8.780331590e+03

Gurobi 8.0.0 (linux64, Python) logging started Thu Jun 14 15:54:53 2018

Academic license - for non-commercial use only
Optimize a model with 235 rows, 472 columns and 940 nonzeros
Coefficient statistics:
  Matrix range     [1e+00, 5e+03]
  Objective range  [5e-01, 5e-01]
  Bounds range     [0e+00, 0e+00]
  RHS range        [2e+02, 2e+03]
Presolve time: 0.00s
Presolved: 235 rows, 472 columns, 940 nonzeros

Iteration    Objective       Primal Inf.    Dual Inf.      Time
       0    0.0000000e+00   6.978089e+03   0.000000e+00      0s
     262    8.7803316e+03   0.000000e+00   0.000000e+00      0s

Solved in 262 iterations and 0.01 seconds
Optimal objective  8.780331590e+03

Gurobi 8.0.0 (linux64, Python) logging started Thu Jun 14 15:55:35 2018

Academic license - for non-commercial use only
Optimize a model with 235 rows, 472 columns and 940 nonzeros
Coefficient statistics:
  Matrix range     [1e+00, 5e+03]
  Objective range  [5e-01, 5e-01]
  Bounds range     [0e+00, 0e+00]
  RHS range        [2e+02, 2e+03]
Presolve time: 0.00s
Presolved: 235 rows, 472 columns, 940 nonzeros

Iteration    Objective       Primal Inf.    Dual Inf.      Time
       0    0.0000000e+00   6.978089e+03   0.000000e+00      0s
     262    8.7803316e+03   0.000000e+00   0.000000e+00      0s

Solved in 262 iterations and 0.00 seconds
Optimal objective  8.780331590e+03

Gurobi 8.0.0 (linux64, Python) logging started Thu Jun 14 16:06:34 2018

Academic license - for non-commercial use only
Optimize a model with 235 rows, 472 columns and 940 nonzeros
Coefficient statistics:
  Matrix range     [1e+00, 5e+03]
  Objective range  [5e-01, 5e-01]
  Bounds range     [0e+00, 0e+00]
  RHS range        [2e+02, 2e+03]
Presolve time: 0.00s
Presolved: 235 rows, 472 columns, 940 nonzeros

Iteration    Objective       Primal Inf.    Dual Inf.      Time
       0    0.0000000e+00   6.978089e+03   0.000000e+00      0s
     262    8.7803316e+03   0.000000e+00   0.000000e+00      0s

Solved in 262 iterations and 0.00 seconds
Optimal objective  8.780331590e+03

Gurobi 8.0.0 (linux64, Python) logging started Thu Jun 14 16:07:18 2018

Academic license - for non-commercial use only
Optimize a model with 235 rows, 472 columns and 940 nonzeros
Coefficient statistics:
  Matrix range     [1e+00, 5e+03]
  Objective range  [5e-01, 5e-01]
  Bounds range     [0e+00, 0e+00]
  RHS range        [2e+02, 2e+03]
Presolve time: 0.00s
Presolved: 235 rows, 472 columns, 940 nonzeros

Iteration    Objective       Primal Inf.    Dual Inf.      Time
       0    0.0000000e+00   6.978089e+03   0.000000e+00      0s
     262    8.7803316e+03   0.000000e+00   0.000000e+00      0s

Solved in 262 iterations and 0.01 seconds
Optimal objective  8.780331590e+03

Gurobi 8.0.0 (linux64, Python) logging started Thu Jun 14 16:19:23 2018

Academic license - for non-commercial use only

Gurobi 8.0.0 (linux64, Python) logging started Thu Jun 14 16:19:37 2018

Academic license - for non-commercial use only

Gurobi 8.0.0 (linux64, Python) logging started Thu Jun 14 16:20:39 2018

Academic license - for non-commercial use only

Gurobi 8.0.0 (linux64, Python) logging started Thu Jun 14 16:27:10 2018

Academic license - for non-commercial use only

Gurobi 8.0.0 (linux64, Python) logging started Thu Jun 14 16:27:27 2018

Academic license - for non-commercial use only

Gurobi 8.0.0 (linux64, Python) logging started Thu Jun 14 16:27:56 2018

Academic license - for non-commercial use only

Gurobi 8.0.0 (linux64, Python) logging started Thu Jun 14 16:28:52 2018


Gurobi 8.0.0 (linux64, Python) logging started Thu Jun 14 16:28:52 2018

Academic license - for non-commercial use only
Academic license - for non-commercial use only

Gurobi 8.0.0 (linux64, Python) logging started Thu Jun 14 17:09:09 2018

Academic license - for non-commercial use only

Gurobi 8.0.0 (linux64, Python) logging started Thu Jun 14 17:17:38 2018

Academic license - for non-commercial use only

Gurobi 8.0.0 (linux64, Python) logging started Thu Jun 14 17:25:50 2018

Academic license - for non-commercial use only

Gurobi 8.0.0 (linux64, Python) logging started Thu Jun 14 17:55:53 2018

Academic license - for non-commercial use only

Gurobi 8.0.0 (linux64, Python) logging started Thu Jun 14 17:56:10 2018

Academic license - for non-commercial use only

Gurobi 8.0.0 (linux64, Python) logging started Thu Jun 14 17:57:26 2018

Academic license - for non-commercial use only

Gurobi 8.0.0 (linux64, Python) logging started Thu Jun 14 17:58:15 2018

Academic license - for non-commercial use only
Optimize a model with 257 rows, 2585 columns and 7755 nonzeros
Coefficient statistics:
  Matrix range     [1e+00, 1e+03]
  Objective range  [2e+01, 2e+03]
  Bounds range     [0e+00, 0e+00]
  RHS range        [4e-03, 9e+01]
Presolve time: 0.02s

Solved in 0 iterations and 0.02 seconds
Infeasible or unbounded model

Gurobi 8.0.0 (linux64, Python) logging started Thu Jun 14 17:58:53 2018

Academic license - for non-commercial use only
Optimize a model with 257 rows, 2585 columns and 7755 nonzeros
Coefficient statistics:
  Matrix range     [1e+00, 1e+03]
  Objective range  [2e+01, 2e+03]
  Bounds range     [1e+00, 1e+00]
  RHS range        [4e-03, 9e+01]
Presolve time: 0.00s

Solved in 0 iterations and 0.00 seconds
Infeasible model

Gurobi 8.0.0 (linux64, Python) logging started Thu Jun 14 17:59:40 2018

Academic license - for non-commercial use only

Gurobi 8.0.0 (linux64, Python) logging started Thu Jun 14 18:00:13 2018

Academic license - for non-commercial use only
Error: it isn't a multi-objective model
Error: it isn't a multi-objective model
Error: it isn't a multi-objective model
Error: it isn't a multi-objective model
Error: it isn't a multi-objective model
No solution available
Error: it isn't a multi-objective model
No solution available
Optimize a model with 257 rows, 2585 columns and 7755 nonzeros
Coefficient statistics:
  Matrix range     [1e+00, 1e+03]
  Objective range  [2e+01, 2e+03]
  Bounds range     [1e+00, 1e+00]
  RHS range        [4e-03, 9e+01]
Presolve time: 0.01s

Solved in 0 iterations and 0.01 seconds
Infeasible model
Error: it isn't a multi-objective model
Error: it isn't a multi-objective model
Error: it isn't a multi-objective model
Error: it isn't a multi-objective model
Error: it isn't a multi-objective model
No solution available
Error: it isn't a multi-objective model
No solution available
Error: it isn't a multi-objective model
Error: it isn't a multi-objective model
Error: it isn't a multi-objective model
Error: it isn't a multi-objective model
Error: it isn't a multi-objective model
No solution available
Error: it isn't a multi-objective model
No solution available
Error: it isn't a multi-objective model
Error: it isn't a multi-objective model
Error: it isn't a multi-objective model
Error: it isn't a multi-objective model
Error: it isn't a multi-objective model
No solution available
Error: it isn't a multi-objective model
No solution available
Error: it isn't a multi-objective model
Error: it isn't a multi-objective model
Error: it isn't a multi-objective model
Error: it isn't a multi-objective model
Error: it isn't a multi-objective model
No solution available
Error: it isn't a multi-objective model
No solution available
Error: it isn't a multi-objective model
Error: it isn't a multi-objective model
Error: it isn't a multi-objective model
Error: it isn't a multi-objective model
Error: it isn't a multi-objective model
No solution available
Error: it isn't a multi-objective model
No solution available
Error: it isn't a multi-objective model
Error: it isn't a multi-objective model
Error: it isn't a multi-objective model
Error: it isn't a multi-objective model
Error: it isn't a multi-objective model
No solution available
Error: it isn't a multi-objective model
No solution available

Gurobi 8.0.0 (linux64, Python) logging started Thu Jun 14 18:03:51 2018

Academic license - for non-commercial use only

Gurobi 8.0.0 (linux64, Python) logging started Thu Jun 14 18:04:03 2018

Academic license - for non-commercial use only
Optimize a model with 257 rows, 2585 columns and 7755 nonzeros
Coefficient statistics:
  Matrix range     [1e+00, 1e+03]
  Objective range  [2e+01, 2e+03]
  Bounds range     [1e+00, 1e+00]
  RHS range        [4e-03, 9e+01]
Presolve time: 0.02s

Solved in 0 iterations and 0.02 seconds
Infeasible model
Error: it isn't a multi-objective model
Error: it isn't a multi-objective model
Error: it isn't a multi-objective model
Error: it isn't a multi-objective model
Error: it isn't a multi-objective model
No solution available
Error: it isn't a multi-objective model
No solution available
Error: it isn't a multi-objective model
Error: it isn't a multi-objective model
Error: it isn't a multi-objective model
Error: it isn't a multi-objective model
Error: it isn't a multi-objective model
No solution available
Error: it isn't a multi-objective model
No solution available
Error: it isn't a multi-objective model
Error: it isn't a multi-objective model
Error: it isn't a multi-objective model
Error: it isn't a multi-objective model
Error: it isn't a multi-objective model
No solution available
Error: it isn't a multi-objective model
No solution available

Gurobi 8.0.0 (linux64, Python) logging started Thu Jun 14 18:13:54 2018

Academic license - for non-commercial use only

Gurobi 8.0.0 (linux64, Python) logging started Thu Jun 14 18:14:14 2018

Academic license - for non-commercial use only

Gurobi 8.0.0 (linux64, Python) logging started Thu Jun 14 18:14:52 2018

Academic license - for non-commercial use only
Error: it isn't a multi-objective model
Error: it isn't a multi-objective model
Error: it isn't a multi-objective model
Error: it isn't a multi-objective model
Error: it isn't a multi-objective model
No solution available
Error: it isn't a multi-objective model
No solution available
Error: it isn't a multi-objective model
Error: it isn't a multi-objective model
Error: it isn't a multi-objective model
Error: it isn't a multi-objective model
Error: it isn't a multi-objective model
No solution available
Error: it isn't a multi-objective model
No solution available

Gurobi 8.0.0 (linux64, Python) logging started Thu Jun 14 18:15:43 2018

Academic license - for non-commercial use only
Optimize a model with 235 rows, 472 columns and 940 nonzeros
Coefficient statistics:
  Matrix range     [1e+00, 5e+03]
  Objective range  [5e-01, 5e-01]
  Bounds range     [0e+00, 0e+00]
  RHS range        [2e+02, 2e+03]
Presolve time: 0.02s
Presolved: 235 rows, 472 columns, 940 nonzeros

Iteration    Objective       Primal Inf.    Dual Inf.      Time
       0    0.0000000e+00   6.978089e+03   0.000000e+00      0s
     262    8.7803316e+03   0.000000e+00   0.000000e+00      0s

Solved in 262 iterations and 0.03 seconds
Optimal objective  8.780331590e+03
Error: it isn't a multi-objective model
Error: it isn't a multi-objective model
Error: it isn't a multi-objective model
Error: it isn't a multi-objective model
Error: it isn't a multi-objective model
No solution available
Error: it isn't a multi-objective model
No solution available
Error: it isn't a multi-objective model
Error: it isn't a multi-objective model
Error: it isn't a multi-objective model
Error: it isn't a multi-objective model
Error: it isn't a multi-objective model
No solution available
Error: it isn't a multi-objective model
No solution available

Gurobi 8.0.0 (linux64, Python) logging started Thu Jun 14 18:16:58 2018

Academic license - for non-commercial use only
Optimize a model with 257 rows, 2585 columns and 7755 nonzeros
Coefficient statistics:
  Matrix range     [1e+00, 1e+03]
  Objective range  [2e+01, 2e+03]
  Bounds range     [1e+00, 1e+00]
  RHS range        [4e-03, 9e+01]
Presolve time: 0.00s

Solved in 0 iterations and 0.00 seconds
Infeasible model
Error: it isn't a multi-objective model
Error: it isn't a multi-objective model
Error: it isn't a multi-objective model
Error: it isn't a multi-objective model
Error: it isn't a multi-objective model
No solution available
Error: it isn't a multi-objective model
No solution available
Error: it isn't a multi-objective model
Error: it isn't a multi-objective model
Error: it isn't a multi-objective model
Error: it isn't a multi-objective model
Error: it isn't a multi-objective model
No solution available
Error: it isn't a multi-objective model
No solution available

Gurobi 8.0.0 (linux64, Python) logging started Thu Jun 14 18:23:39 2018

Academic license - for non-commercial use only

Gurobi 8.0.0 (linux64, Python) logging started Thu Jun 14 18:23:44 2018

Academic license - for non-commercial use only

Gurobi 8.0.0 (linux64, Python) logging started Thu Jun 14 18:24:03 2018

Academic license - for non-commercial use only
Optimize a model with 5405 rows, 2585 columns and 7755 nonzeros
Coefficient statistics:
  Matrix range     [1e+00, 5e+03]
  Objective range  [2e+01, 2e+03]
  Bounds range     [1e+00, 1e+00]
  RHS range        [4e-03, 9e+01]
Presolve removed 2585 rows and 2585 columns
Presolve time: 0.03s

Solved in 0 iterations and 0.03 seconds
Infeasible model
Error: it isn't a multi-objective model
Error: it isn't a multi-objective model
Error: it isn't a multi-objective model
Error: it isn't a multi-objective model
Error: it isn't a multi-objective model
No solution available
Error: it isn't a multi-objective model
No solution available
Error: it isn't a multi-objective model
Error: it isn't a multi-objective model
Error: it isn't a multi-objective model
Error: it isn't a multi-objective model
Error: it isn't a multi-objective model
No solution available
Error: it isn't a multi-objective model
No solution available
Error: it isn't a multi-objective model
Error: it isn't a multi-objective model
Error: it isn't a multi-objective model
Error: it isn't a multi-objective model
Error: it isn't a multi-objective model
No solution available
Error: it isn't a multi-objective model
No solution available

Gurobi 8.0.0 (linux64, Python) logging started Thu Jun 14 18:37:43 2018

Academic license - for non-commercial use only

Gurobi 8.0.0 (linux64, Python) logging started Thu Jun 14 18:38:05 2018

Academic license - for non-commercial use only

Gurobi 8.0.0 (linux64, Python) logging started Thu Jun 14 18:39:25 2018

Academic license - for non-commercial use only

Gurobi 8.0.0 (linux64, Python) logging started Thu Jun 14 18:40:05 2018

Academic license - for non-commercial use only

Gurobi 8.0.0 (linux64, Python) logging started Thu Jun 14 18:40:27 2018

Academic license - for non-commercial use only

Gurobi 8.0.0 (linux64, Python) logging started Thu Jun 14 18:43:12 2018

Academic license - for non-commercial use only

Gurobi 8.0.0 (linux64, Python) logging started Thu Jun 14 18:43:36 2018

Academic license - for non-commercial use only

Gurobi 8.0.0 (linux64, Python) logging started Thu Jun 14 18:47:32 2018

Academic license - for non-commercial use only

Gurobi 8.0.0 (linux64, Python) logging started Thu Jun 14 18:51:43 2018

Academic license - for non-commercial use only
Optimize a model with 257 rows, 2585 columns and 7755 nonzeros
Coefficient statistics:
  Matrix range     [1e+00, 5e+03]
  Objective range  [2e+01, 2e+03]
  Bounds range     [1e+00, 1e+00]
  RHS range        [4e-03, 9e+01]
Presolve removed 2 rows and 1 columns
Presolve time: 0.03s
Presolved: 255 rows, 2584 columns, 7508 nonzeros

Iteration    Objective       Primal Inf.    Dual Inf.      Time
       0   -8.8680900e+02   4.751248e+01   0.000000e+00      0s
     685   -3.4018191e+02   0.000000e+00   0.000000e+00      0s

Solved in 685 iterations and 0.06 seconds
Optimal objective -3.401819050e+02
Error: it isn't a multi-objective model
Error: it isn't a multi-objective model
Error: it isn't a multi-objective model
Error: it isn't a multi-objective model
Error: it isn't a multi-objective model
No solution available
Error: it isn't a multi-objective model
No solution available
Error: it isn't a multi-objective model
Error: it isn't a multi-objective model
Error: it isn't a multi-objective model
Error: it isn't a multi-objective model
Error: it isn't a multi-objective model
No solution available
Error: it isn't a multi-objective model
No solution available
Error: it isn't a multi-objective model
Error: it isn't a multi-objective model
Error: it isn't a multi-objective model
Error: it isn't a multi-objective model
Error: it isn't a multi-objective model
No solution available
Error: it isn't a multi-objective model
No solution available

Gurobi 8.0.0 (linux64, Python) logging started Thu Jun 14 18:58:49 2018

Academic license - for non-commercial use only
Optimize a model with 257 rows, 2585 columns and 7755 nonzeros
Coefficient statistics:
  Matrix range     [1e+00, 5e+03]
  Objective range  [2e+01, 2e+03]
  Bounds range     [1e+00, 1e+00]
  RHS range        [4e-03, 9e+01]
Presolve removed 2 rows and 1 columns
Presolve time: 0.03s
Presolved: 255 rows, 2584 columns, 7508 nonzeros

Iteration    Objective       Primal Inf.    Dual Inf.      Time
       0   -8.8680900e+02   4.751248e+01   0.000000e+00      0s
     685   -3.4018191e+02   0.000000e+00   0.000000e+00      0s

Solved in 685 iterations and 0.05 seconds
Optimal objective -3.401819050e+02

Gurobi 8.0.0 (linux64, Python) logging started Fri Jun 15 09:42:51 2018

Academic license - for non-commercial use only
Error: it isn't a multi-objective model
Error: it isn't a multi-objective model
Error: it isn't a multi-objective model
Error: it isn't a multi-objective model
Error: it isn't a multi-objective model
No solution available
Error: it isn't a multi-objective model
No solution available
Error: it isn't a multi-objective model
Error: it isn't a multi-objective model
Error: it isn't a multi-objective model
Error: it isn't a multi-objective model
Error: it isn't a multi-objective model
No solution available
Error: it isn't a multi-objective model
No solution available
Error: it isn't a multi-objective model
Error: it isn't a multi-objective model
Error: it isn't a multi-objective model
Error: it isn't a multi-objective model
Error: it isn't a multi-objective model
No solution available
Error: it isn't a multi-objective model
No solution available
Error: it isn't a multi-objective model
Error: it isn't a multi-objective model
Error: it isn't a multi-objective model
Error: it isn't a multi-objective model
Error: it isn't a multi-objective model
No solution available
Error: it isn't a multi-objective model
No solution available
Optimize a model with 257 rows, 2585 columns and 7755 nonzeros
Coefficient statistics:
  Matrix range     [1e+00, 5e+03]
  Objective range  [2e+01, 2e+03]
  Bounds range     [1e+00, 1e+00]
  RHS range        [4e-03, 9e+01]
Presolve removed 2 rows and 1 columns
Presolve time: 0.04s
Presolved: 255 rows, 2584 columns, 7508 nonzeros

Iteration    Objective       Primal Inf.    Dual Inf.      Time
       0   -8.8680900e+02   4.751248e+01   0.000000e+00      0s
     685   -3.4018191e+02   0.000000e+00   0.000000e+00      0s

Solved in 685 iterations and 0.09 seconds
Optimal objective -3.401819050e+02
Error: it isn't a multi-objective model
Error: it isn't a multi-objective model
Error: it isn't a multi-objective model
Error: it isn't a multi-objective model
Error: it isn't a multi-objective model
No solution available
Error: it isn't a multi-objective model
No solution available
Error: it isn't a multi-objective model
Error: it isn't a multi-objective model
Error: it isn't a multi-objective model
Error: it isn't a multi-objective model
Error: it isn't a multi-objective model
No solution available
Error: it isn't a multi-objective model
No solution available

Gurobi 8.0.0 (linux64, Python) logging started Fri Jun 15 10:11:23 2018

Academic license - for non-commercial use only
Optimize a model with 257 rows, 2585 columns and 7755 nonzeros
Coefficient statistics:
  Matrix range     [1e+00, 5e+03]
  Objective range  [2e+01, 2e+03]
  Bounds range     [1e+00, 1e+00]
  RHS range        [4e-03, 9e+01]
Presolve removed 2 rows and 1 columns
Presolve time: 0.00s
Presolved: 255 rows, 2584 columns, 7508 nonzeros

Iteration    Objective       Primal Inf.    Dual Inf.      Time
       0   -8.8680900e+02   4.751248e+01   0.000000e+00      0s
     685   -3.4018191e+02   0.000000e+00   0.000000e+00      0s

Solved in 685 iterations and 0.02 seconds
Optimal objective -3.401819050e+02

Gurobi 8.0.0 (linux64, Python) logging started Fri Jun 15 10:16:16 2018

Academic license - for non-commercial use only
Optimize a model with 257 rows, 2585 columns and 7755 nonzeros
Coefficient statistics:
  Matrix range     [1e+00, 5e+03]
  Objective range  [2e+01, 2e+03]
  Bounds range     [1e+00, 1e+00]
  RHS range        [4e-03, 9e+01]
Presolve removed 2 rows and 1 columns
Presolve time: 0.00s
Presolved: 255 rows, 2584 columns, 7508 nonzeros

Iteration    Objective       Primal Inf.    Dual Inf.      Time
       0   -8.8680900e+02   4.751248e+01   0.000000e+00      0s
     685   -3.4018191e+02   0.000000e+00   0.000000e+00      0s

Solved in 685 iterations and 0.02 seconds
Optimal objective -3.401819050e+02

Gurobi 8.0.0 (linux64, Python) logging started Fri Jun 15 10:48:13 2018

Academic license - for non-commercial use only
Optimize a model with 257 rows, 2585 columns and 7755 nonzeros
Coefficient statistics:
  Matrix range     [1e+00, 5e+03]
  Objective range  [2e+01, 2e+03]
  Bounds range     [1e+00, 1e+00]
  RHS range        [4e-03, 9e+01]
Presolve removed 2 rows and 1 columns
Presolve time: 0.00s
Presolved: 255 rows, 2584 columns, 7508 nonzeros

Iteration    Objective       Primal Inf.    Dual Inf.      Time
       0   -8.8680900e+02   4.751248e+01   0.000000e+00      0s
     685   -3.4018191e+02   0.000000e+00   0.000000e+00      0s

Solved in 685 iterations and 0.02 seconds
Optimal objective -3.401819050e+02
